\ This file has been generated by DOcplex
\ ENCODING=ISO-8859-1
\Problem name: recycling problem

Minimize
 obj: V
Subject To
 c1: V - 0.806526811295 a1_u0_x0 - 1.338641711116 a1_u1_x0
     + 1.639948355670 a1_u2_x0 >= 0
 c2: V - 1.649804022465 a1_u0_x0 - 2.284863310751 a1_u1_x0
     + 0.619111371523 a1_u2_x0 >= 0
 c3: V + 0.807530741051 a1_u0_x0 + 0.147619184415 a1_u1_x0
     - 1.958988520009 a1_u2_x0 >= 0
 c4: a1_u0_x0 + a1_u1_x0 + a1_u2_x0 = 1
 c5: a1_u0_x1 + a1_u1_x1 + a1_u2_x1 = 1
 c6: a1_u0_x2 + a1_u1_x2 + a1_u2_x2 = 1
 c7: a1_u0_x3 + a1_u1_x3 + a1_u2_x3 = 1

Bounds
       V Free
End
